1 20 4030 1 1 0 1 1 1 0 1 1 1 1 1 1 1 1 1 1 0 1 1
2 20 5565 1 1 1 1 1 0 1 0 1 1 1 1 1 1 0 1 1 1 1 1
3 20 5434 1 1 1 0 1 1 1 1 0 1 1 1 0 1 1 1 1 1 1 1
4 20 5051 1 1 1 1 1 1 1 1 0 0 1 1 1 1 0 1 1 0 1 1
5 20 6116 1 1 1 1 0 1 1 1 1 1 0 1 1 1 1 1 0 1 1 1
6 20 5584 1 1 0 1 1 1 1 1 1 1 1 1 1 1 0 1 1 1 1 0
7 20 5143 1 1 0 1 1 1 1 1 1 1 0 1 1 1 1 1 0 1 1 1
8 20 4439 1 0 1 1 1 1 1 1 1 1 0 1 1 0 1 1 1 1 1 1
9 20 4625 1 1 1 0 1 1 1 0 1 1 1 0 1 1 1 1 1 1 1 1
10 20 4207 1 1 1 1 1 0 1 1 1 1 1 1 1 0 1 0 1 1 1 1
11 20 4260 1 1 1 1 1 1 1 0 0 1 1 1 1 1 1 1 1 1 0 1
12 20 3870 1 1 0 1 1 1 0 1 1 1 0 1 1 1 1 1 0 1 1 1
13 20 4725 1 1 0 1 1 1 1 1 1 0 1 1 1 1 0 1 0 1 1 1
14 20 4095 1 1 1 1 1 1 1 0 1 1 0 1 1 1 0 1 0 1 1 1
15 20 6039 1 1 1 1 1 0 0 1 1 1 1 1 1 1 1 1 1 0 1 1
16 20 4658 1 1 0 1 1 0 1 1 1 1 1 1 1 0 1 1 1 1 1 1
17 20 4660 1 1 1 0 0 1 1 1 1 1 1 1 0 1 1 1 1 1 1 1
18 20 4737 1 1 1 1 1 0 1 1 1 1 1 1 0 0 1 1 1 0 1 1
19 20 4699 1 1 1 1 1 1 1 1 0 1 1 1 1 1 0 1 0 1 1 1
20 20 4806 1 0 1 1 1 0 1 1 1 1 1 1 1 1 1 1 1 1 1 1
21 20 5207 1 1 0 1 1 1 0 1 1 1 1 0 1 1 0 1 1 1 1 1
22 20 3961 1 0 1 1 1 1 1 1 1 1 1 1 0 0 1 0 1 1 1 1
23 20 5717 1 1 1 0 1 1 1 1 1 1 1 1 1 1 1 1 1 0 1 1
24 20 5320 1 1 1 1 0 1 1 1 1 1 1 1 1 1 0 1 0 1 1 1
25 20 4440 1 1 0 1 1 1 1 1 1 0 1 1 0 1 1 1 1 1 1 1
26 20 5754 1 0 1 1 1 1 1 1 1 1 1 1 1 1 1 1 0 1 1 0
27 20 5671 1 0 1 0 1 1 1 1 1 1 0 0 1 1 1 1 1 1 1 1
28 20 4720 1 1 0 1 1 1 1 1 1 1 1 1 1 1 0 1 1 1 0 1
29 20 5441 1 0 1 1 0 1 1 1 1 1 1 1 1 1 0 1 1 1 1 1
30 20 4754 1 1 0 1 1 1 1 1 1 1 1 1 1 1 0 1 0 1 1 1
31 20 4723 0 1 1 1 1 1 1 1 1 1 1 1 1 1 1 1 0 1 0 1
32 20 5109 1 1 1 1 0 1 1 1 1 1 0 1 1 1 1 0 0 0 1 1
33 20 5288 1 1 1 1 1 0 0 1 0 1 1 1 1 1 1 1 1 1 1 1
34 20 5232 0 1 1 1 0 1 1 0 1 1 1 1 1 1 1 1 1 0 1 1
35 20 5221 0 1 1 1 1 1 1 1 1 1 1 1 0 1 1 1 0 1 1 1
36 20 4575 1 1 0 1 1 1 0 1 1 1 1 1 1 1 1 1 0 1 1 1
37 20 4889 1 1 1 1 1 0 1 1 0 1 1 1 0 1 0 1 1 1 1 1
38 20 4198 1 1 0 1 1 1 1 1 1 1 0 1 1 1 0 1 1 1 0 1
39 20 4650 1 1 0 1 1 1 1 1 1 1 1 1 1 1 1 1 0 1 1 1
40 20 5207 1 1 1 1 1 1 1 0 1 1 0 1 1 1 1 1 1 1 0 1
41 20 4356 1 0 1 1 1 1 1 1 1 1 1 1 0 1 1 1 1 1 0 1
42 20 4339 1 0 1 1 1 1 1 1 1 1 1 1 1 1 0 1 0 1 1 1
43 20 4027 0 1 1 1 1 1 1 1 1 1 0 0 1 1 1 1 0 1 1 1
44 20 3765 1 1 1 1 1 0 1 1 0 1 1 1 1 1 1 0 0 1 1 1
45 20 5109 1 0 1 0 1 1 0 1 1 1 1 1 1 1 1 1 1 1 1 1
46 20 4163 0 0 1 1 1 1 1 1 0 1 1 1 1 1 1 1 0 1 1 1
47 20 4102 1 1 1 1 0 1 1 1 1 1 1 1 1 0 1 1 1 1 0 1
48 20 4946 1 1 1 1 1 1 1 1 1 1 1 1 1 0 0 1 1 1 1 0
49 20 4777 1 1 1 1 1 1 1 1 1 0 1 0 1 0 0 1 1 1 1 1
50 20 4318 1 0 1 1 0 1 1 1 1 1 1 1 0 0 1 1 0 1 1 1
51 20 5268 1 1 0 1 1 1 1 1 0 1 1 1 1 1 1 1 0 1 1 1
52 20 5151 1 1 1 1 1 1 1 1 0 1 1 1 1 1 0 0 1 1 1 1
53 20 5508 1 1 1 1 1 1 1 1 1 1 0 0 1 0 1 1 1 1 1 1
54 20 5246 1 1 1 1 1 1 1 1 1 1 1 1 0 0 1 0 1 1 1 1
55 20 4561 1 1 0 1 1 1 1 1 1 1 0 0 1 1 1 1 1 1 1 1
56 20 3472 1 0 1 1 1 1 1 1 1 1 1 0 1 0 1 1 1 1 1 1
57 20 4043 1 1 1 1 1 1 0 1 0 1 0 1 1 1 1 1 1 1 1 1
58 20 5823 1 1 1 1 0 1 1 1 1 1 1 1 0 1 1 1 0 1 1 1
59 20 4905 1 1 1 0 1 1 1 1 1 1 0 1 1 1 1 1 1 0 1 1
60 20 4908 1 1 1 1 1 1 1 0 1 1 1 1 1 1 1 0 0 1 0 1
61 20 4314 1 0 1 0 0 1 1 1 1 1 1 1 1 1 0 1 1 1 1 1
62 20 4996 1 1 1 1 1 1 1 1 1 0 1 0 1 1 1 1 1 1 0 1
63 20 4697 1 1 1 1 1 1 1 0 1 1 0 1 1 1 0 1 1 1 1 1
64 20 4669 1 1 1 1 1 0 1 1 1 1 0 1 1 1 1 1 1 0 1 1
65 20 4989 1 1 1 1 1 1 0 0 1 1 1 1 1 1 1 1 0 1 1 1
66 20 3973 1 0 1 1 1 1 1 1 1 1 1 0 1 0 1 1 1 1 1 1
67 20 4974 0 1 1 1 1 1 0 1 1 1 1 1 1 1 1 1 1 1 1 0
68 20 5807 1 1 1 1 0 1 1 1 1 0 1 0 1 1 1 1 1 1 1 1
69 20 4675 1 1 1 1 1 1 1 1 1 1 1 0 1 0 0 1 1 1 1 1
70 20 5012 0 1 1 1 1 1 1 1 1 0 1 1 0 1 1 1 1 1 1 1
71 20 4788 1 1 1 1 1 1 1 1 1 1 1 0 1 0 1 0 1 1 1 1
72 20 5038 1 1 0 1 1 1 1 1 1 1 1 0 1 1 0 1 1 1 1 1
73 20 4970 1 0 1 1 1 1 0 1 1 1 1 1 1 0 1 0 1 1 1 1
74 20 3929 1 1 1 0 1 1 1 1 0 1 1 1 1 1 1 1 1 1 0 1
75 20 5641 1 1 1 1 1 1 1 1 1 1 1 1 1 0 1 1 0 1 1 0
76 20 5561 1 1 1 1 1 1 0 0 1 1 1 1 1 1 1 0 1 1 1 1
77 20 4116 0 1 1 1 1 1 1 0 1 1 1 0 1 1 1 0 1 1 0 1
78 20 5676 1 1 1 1 1 0 1 1 1 1 1 1 0 1 1 1 0 1 1 1
79 20 4295 1 1 1 1 1 0 1 1 1 1 1 1 1 1 1 1 0 1 1 0
80 20 4249 1 1 1 0 0 0 1 1 1 1 1 0 1 1 1 1 1 1 1 1
81 20 4470 1 1 0 1 1 1 1 1 1 0 1 0 1 1 1 1 1 1 1 1
82 20 5575 1 1 0 1 1 1 1 1 1 1 1 1 1 1 1 1 0 1 0 1
83 20 4127 1 1 1 1 0 1 1 1 1 1 1 0 1 1 1 1 1 1 1 1
84 20 5065 1 1 1 1 0 1 1 1 1 0 1 1 1 1 1 1 1 0 1 1
85 20 4711 1 1 0 1 1 1 1 1 0 1 1 1 0 1 1 1 1 0 1 1
86 20 4862 0 1 1 1 1 1 1 1 1 1 0 1 1 1 1 1 1 0 0 1
87 20 5629 1 1 1 1 1 0 1 1 0 1 1 1 1 1 1 1 0 1 1 1
88 20 5270 0 1 1 1 1 1 1 1 0 1 1 1 1 1 0 1 1 1 0 1
89 20 4467 1 1 1 0 1 1 0 1 0 1 1 1 1 1 1 1 1 1 1 1
90 20 3565 1 1 1 1 1 1 1 1 1 1 1 1 1 1 0 1 1 0 1 1
91 20 5358 0 1 1 1 1 0 0 1 1 1 1 1 1 0 1 1 1 1 1 0
92 20 5338 1 0 1 1 1 1 0 1 1 1 1 1 0 1 1 1 1 1 1 1
93 20 5338 1 1 1 1 1 1 1 1 0 1 1 1 1 1 1 1 1 0 1 0
94 20 5816 1 1 1 0 1 1 1 1 0 1 1 1 1 1 1 1 0 1 1 1
95 20 3950 1 1 1 1 1 1 1 1 1 1 1 0 1 1 1 1 1 1 0 0
96 20 5013 1 1 1 0 0 1 1 1 1 1 0 1 1 1 1 1 1 1 1 1
97 20 5259 1 0 1 1 1 1 1 1 1 1 0 1 1 1 1 1 1 1 0 1
98 20 5630 1 1 1 0 1 1 1 1 1 1 1 1 1 1 1 0 1 1 1 1
99 20 5536 1 1 1 1 1 1 1 1 1 1 1 1 1 1 0 1 1 0 1 0
100 20 4784 1 1 1 1 1 1 1 1 1 1 1 1 0 0 1 1 1 1 0 1
